p cnf 600 2582
1 2 3 0
4 5 6 0
7 8 9 0
10 11 12 0
13 14 15 0
16 17 18 0
19 20 21 0
22 23 24 0
25 26 27 0
28 29 30 0
31 32 33 0
34 35 36 0
37 38 39 0
40 41 42 0
43 44 45 0
46 47 48 0
49 50 51 0
52 53 54 0
55 56 57 0
58 59 60 0
61 62 63 0
64 65 66 0
67 68 69 0
70 71 72 0
73 74 75 0
76 77 78 0
79 80 81 0
82 83 84 0
85 86 87 0
88 89 90 0
91 92 93 0
94 95 96 0
97 98 99 0
100 101 102 0
103 104 105 0
106 107 108 0
109 110 111 0
112 113 114 0
115 116 117 0
118 119 120 0
121 122 123 0
124 125 126 0
127 128 129 0
130 131 132 0
133 134 135 0
136 137 138 0
139 140 141 0
142 143 144 0
145 146 147 0
148 149 150 0
151 152 153 0
154 155 156 0
157 158 159 0
160 161 162 0
163 164 165 0
166 167 168 0
169 170 171 0
172 173 174 0
175 176 177 0
178 179 180 0
181 182 183 0
184 185 186 0
187 188 189 0
190 191 192 0
193 194 195 0
196 197 198 0
199 200 201 0
202 203 204 0
205 206 207 0
208 209 210 0
211 212 213 0
214 215 216 0
217 218 219 0
220 221 222 0
223 224 225 0
226 227 228 0
229 230 231 0
232 233 234 0
235 236 237 0
238 239 240 0
241 242 243 0
244 245 246 0
247 248 249 0
250 251 252 0
253 254 255 0
256 257 258 0
259 260 261 0
262 263 264 0
265 266 267 0
268 269 270 0
271 272 273 0
274 275 276 0
277 278 279 0
280 281 282 0
283 284 285 0
286 287 288 0
289 290 291 0
292 293 294 0
295 296 297 0
298 299 300 0
301 302 303 0
304 305 306 0
307 308 309 0
310 311 312 0
313 314 315 0
316 317 318 0
319 320 321 0
322 323 324 0
325 326 327 0
328 329 330 0
331 332 333 0
334 335 336 0
337 338 339 0
340 341 342 0
343 344 345 0
346 347 348 0
349 350 351 0
352 353 354 0
355 356 357 0
358 359 360 0
361 362 363 0
364 365 366 0
367 368 369 0
370 371 372 0
373 374 375 0
376 377 378 0
379 380 381 0
382 383 384 0
385 386 387 0
388 389 390 0
391 392 393 0
394 395 396 0
397 398 399 0
400 401 402 0
403 404 405 0
406 407 408 0
409 410 411 0
412 413 414 0
415 416 417 0
418 419 420 0
421 422 423 0
424 425 426 0
427 428 429 0
430 431 432 0
433 434 435 0
436 437 438 0
439 440 441 0
442 443 444 0
445 446 447 0
448 449 450 0
451 452 453 0
454 455 456 0
457 458 459 0
460 461 462 0
463 464 465 0
466 467 468 0
469 470 471 0
472 473 474 0
475 476 477 0
478 479 480 0
481 482 483 0
484 485 486 0
487 488 489 0
490 491 492 0
493 494 495 0
496 497 498 0
499 500 501 0
502 503 504 0
505 506 507 0
508 509 510 0
511 512 513 0
514 515 516 0
517 518 519 0
520 521 522 0
523 524 525 0
526 527 528 0
529 530 531 0
532 533 534 0
535 536 537 0
538 539 540 0
541 542 543 0
544 545 546 0
547 548 549 0
550 551 552 0
553 554 555 0
556 557 558 0
559 560 561 0
562 563 564 0
565 566 567 0
568 569 570 0
571 572 573 0
574 575 576 0
577 578 579 0
580 581 582 0
583 584 585 0
586 587 588 0
589 590 591 0
592 593 594 0
595 596 597 0
598 599 600 0
-1 -2 0
-1 -3 0
-2 -3 0
-4 -5 0
-4 -6 0
-5 -6 0
-7 -8 0
-7 -9 0
-8 -9 0
-10 -11 0
-10 -12 0
-11 -12 0
-13 -14 0
-13 -15 0
-14 -15 0
-16 -17 0
-16 -18 0
-17 -18 0
-19 -20 0
-19 -21 0
-20 -21 0
-22 -23 0
-22 -24 0
-23 -24 0
-25 -26 0
-25 -27 0
-26 -27 0
-28 -29 0
-28 -30 0
-29 -30 0
-31 -32 0
-31 -33 0
-32 -33 0
-34 -35 0
-34 -36 0
-35 -36 0
-37 -38 0
-37 -39 0
-38 -39 0
-40 -41 0
-40 -42 0
-41 -42 0
-43 -44 0
-43 -45 0
-44 -45 0
-46 -47 0
-46 -48 0
-47 -48 0
-49 -50 0
-49 -51 0
-50 -51 0
-52 -53 0
-52 -54 0
-53 -54 0
-55 -56 0
-55 -57 0
-56 -57 0
-58 -59 0
-58 -60 0
-59 -60 0
-61 -62 0
-61 -63 0
-62 -63 0
-64 -65 0
-64 -66 0
-65 -66 0
-67 -68 0
-67 -69 0
-68 -69 0
-70 -71 0
-70 -72 0
-71 -72 0
-73 -74 0
-73 -75 0
-74 -75 0
-76 -77 0
-76 -78 0
-77 -78 0
-79 -80 0
-79 -81 0
-80 -81 0
-82 -83 0
-82 -84 0
-83 -84 0
-85 -86 0
-85 -87 0
-86 -87 0
-88 -89 0
-88 -90 0
-89 -90 0
-91 -92 0
-91 -93 0
-92 -93 0
-94 -95 0
-94 -96 0
-95 -96 0
-97 -98 0
-97 -99 0
-98 -99 0
-100 -101 0
-100 -102 0
-101 -102 0
-103 -104 0
-103 -105 0
-104 -105 0
-106 -107 0
-106 -108 0
-107 -108 0
-109 -110 0
-109 -111 0
-110 -111 0
-112 -113 0
-112 -114 0
-113 -114 0
-115 -116 0
-115 -117 0
-116 -117 0
-118 -119 0
-118 -120 0
-119 -120 0
-121 -122 0
-121 -123 0
-122 -123 0
-124 -125 0
-124 -126 0
-125 -126 0
-127 -128 0
-127 -129 0
-128 -129 0
-130 -131 0
-130 -132 0
-131 -132 0
-133 -134 0
-133 -135 0
-134 -135 0
-136 -137 0
-136 -138 0
-137 -138 0
-139 -140 0
-139 -141 0
-140 -141 0
-142 -143 0
-142 -144 0
-143 -144 0
-145 -146 0
-145 -147 0
-146 -147 0
-148 -149 0
-148 -150 0
-149 -150 0
-151 -152 0
-151 -153 0
-152 -153 0
-154 -155 0
-154 -156 0
-155 -156 0
-157 -158 0
-157 -159 0
-158 -159 0
-160 -161 0
-160 -162 0
-161 -162 0
-163 -164 0
-163 -165 0
-164 -165 0
-166 -167 0
-166 -168 0
-167 -168 0
-169 -170 0
-169 -171 0
-170 -171 0
-172 -173 0
-172 -174 0
-173 -174 0
-175 -176 0
-175 -177 0
-176 -177 0
-178 -179 0
-178 -180 0
-179 -180 0
-181 -182 0
-181 -183 0
-182 -183 0
-184 -185 0
-184 -186 0
-185 -186 0
-187 -188 0
-187 -189 0
-188 -189 0
-190 -191 0
-190 -192 0
-191 -192 0
-193 -194 0
-193 -195 0
-194 -195 0
-196 -197 0
-196 -198 0
-197 -198 0
-199 -200 0
-199 -201 0
-200 -201 0
-202 -203 0
-202 -204 0
-203 -204 0
-205 -206 0
-205 -207 0
-206 -207 0
-208 -209 0
-208 -210 0
-209 -210 0
-211 -212 0
-211 -213 0
-212 -213 0
-214 -215 0
-214 -216 0
-215 -216 0
-217 -218 0
-217 -219 0
-218 -219 0
-220 -221 0
-220 -222 0
-221 -222 0
-223 -224 0
-223 -225 0
-224 -225 0
-226 -227 0
-226 -228 0
-227 -228 0
-229 -230 0
-229 -231 0
-230 -231 0
-232 -233 0
-232 -234 0
-233 -234 0
-235 -236 0
-235 -237 0
-236 -237 0
-238 -239 0
-238 -240 0
-239 -240 0
-241 -242 0
-241 -243 0
-242 -243 0
-244 -245 0
-244 -246 0
-245 -246 0
-247 -248 0
-247 -249 0
-248 -249 0
-250 -251 0
-250 -252 0
-251 -252 0
-253 -254 0
-253 -255 0
-254 -255 0
-256 -257 0
-256 -258 0
-257 -258 0
-259 -260 0
-259 -261 0
-260 -261 0
-262 -263 0
-262 -264 0
-263 -264 0
-265 -266 0
-265 -267 0
-266 -267 0
-268 -269 0
-268 -270 0
-269 -270 0
-271 -272 0
-271 -273 0
-272 -273 0
-274 -275 0
-274 -276 0
-275 -276 0
-277 -278 0
-277 -279 0
-278 -279 0
-280 -281 0
-280 -282 0
-281 -282 0
-283 -284 0
-283 -285 0
-284 -285 0
-286 -287 0
-286 -288 0
-287 -288 0
-289 -290 0
-289 -291 0
-290 -291 0
-292 -293 0
-292 -294 0
-293 -294 0
-295 -296 0
-295 -297 0
-296 -297 0
-298 -299 0
-298 -300 0
-299 -300 0
-301 -302 0
-301 -303 0
-302 -303 0
-304 -305 0
-304 -306 0
-305 -306 0
-307 -308 0
-307 -309 0
-308 -309 0
-310 -311 0
-310 -312 0
-311 -312 0
-313 -314 0
-313 -315 0
-314 -315 0
-316 -317 0
-316 -318 0
-317 -318 0
-319 -320 0
-319 -321 0
-320 -321 0
-322 -323 0
-322 -324 0
-323 -324 0
-325 -326 0
-325 -327 0
-326 -327 0
-328 -329 0
-328 -330 0
-329 -330 0
-331 -332 0
-331 -333 0
-332 -333 0
-334 -335 0
-334 -336 0
-335 -336 0
-337 -338 0
-337 -339 0
-338 -339 0
-340 -341 0
-340 -342 0
-341 -342 0
-343 -344 0
-343 -345 0
-344 -345 0
-346 -347 0
-346 -348 0
-347 -348 0
-349 -350 0
-349 -351 0
-350 -351 0
-352 -353 0
-352 -354 0
-353 -354 0
-355 -356 0
-355 -357 0
-356 -357 0
-358 -359 0
-358 -360 0
-359 -360 0
-361 -362 0
-361 -363 0
-362 -363 0
-364 -365 0
-364 -366 0
-365 -366 0
-367 -368 0
-367 -369 0
-368 -369 0
-370 -371 0
-370 -372 0
-371 -372 0
-373 -374 0
-373 -375 0
-374 -375 0
-376 -377 0
-376 -378 0
-377 -378 0
-379 -380 0
-379 -381 0
-380 -381 0
-382 -383 0
-382 -384 0
-383 -384 0
-385 -386 0
-385 -387 0
-386 -387 0
-388 -389 0
-388 -390 0
-389 -390 0
-391 -392 0
-391 -393 0
-392 -393 0
-394 -395 0
-394 -396 0
-395 -396 0
-397 -398 0
-397 -399 0
-398 -399 0
-400 -401 0
-400 -402 0
-401 -402 0
-403 -404 0
-403 -405 0
-404 -405 0
-406 -407 0
-406 -408 0
-407 -408 0
-409 -410 0
-409 -411 0
-410 -411 0
-412 -413 0
-412 -414 0
-413 -414 0
-415 -416 0
-415 -417 0
-416 -417 0
-418 -419 0
-418 -420 0
-419 -420 0
-421 -422 0
-421 -423 0
-422 -423 0
-424 -425 0
-424 -426 0
-425 -426 0
-427 -428 0
-427 -429 0
-428 -429 0
-430 -431 0
-430 -432 0
-431 -432 0
-433 -434 0
-433 -435 0
-434 -435 0
-436 -437 0
-436 -438 0
-437 -438 0
-439 -440 0
-439 -441 0
-440 -441 0
-442 -443 0
-442 -444 0
-443 -444 0
-445 -446 0
-445 -447 0
-446 -447 0
-448 -449 0
-448 -450 0
-449 -450 0
-451 -452 0
-451 -453 0
-452 -453 0
-454 -455 0
-454 -456 0
-455 -456 0
-457 -458 0
-457 -459 0
-458 -459 0
-460 -461 0
-460 -462 0
-461 -462 0
-463 -464 0
-463 -465 0
-464 -465 0
-466 -467 0
-466 -468 0
-467 -468 0
-469 -470 0
-469 -471 0
-470 -471 0
-472 -473 0
-472 -474 0
-473 -474 0
-475 -476 0
-475 -477 0
-476 -477 0
-478 -479 0
-478 -480 0
-479 -480 0
-481 -482 0
-481 -483 0
-482 -483 0
-484 -485 0
-484 -486 0
-485 -486 0
-487 -488 0
-487 -489 0
-488 -489 0
-490 -491 0
-490 -492 0
-491 -492 0
-493 -494 0
-493 -495 0
-494 -495 0
-496 -497 0
-496 -498 0
-497 -498 0
-499 -500 0
-499 -501 0
-500 -501 0
-502 -503 0
-502 -504 0
-503 -504 0
-505 -506 0
-505 -507 0
-506 -507 0
-508 -509 0
-508 -510 0
-509 -510 0
-511 -512 0
-511 -513 0
-512 -513 0
-514 -515 0
-514 -516 0
-515 -516 0
-517 -518 0
-517 -519 0
-518 -519 0
-520 -521 0
-520 -522 0
-521 -522 0
-523 -524 0
-523 -525 0
-524 -525 0
-526 -527 0
-526 -528 0
-527 -528 0
-529 -530 0
-529 -531 0
-530 -531 0
-532 -533 0
-532 -534 0
-533 -534 0
-535 -536 0
-535 -537 0
-536 -537 0
-538 -539 0
-538 -540 0
-539 -540 0
-541 -542 0
-541 -543 0
-542 -543 0
-544 -545 0
-544 -546 0
-545 -546 0
-547 -548 0
-547 -549 0
-548 -549 0
-550 -551 0
-550 -552 0
-551 -552 0
-553 -554 0
-553 -555 0
-554 -555 0
-556 -557 0
-556 -558 0
-557 -558 0
-559 -560 0
-559 -561 0
-560 -561 0
-562 -563 0
-562 -564 0
-563 -564 0
-565 -566 0
-565 -567 0
-566 -567 0
-568 -569 0
-568 -570 0
-569 -570 0
-571 -572 0
-571 -573 0
-572 -573 0
-574 -575 0
-574 -576 0
-575 -576 0
-577 -578 0
-577 -579 0
-578 -579 0
-580 -581 0
-580 -582 0
-581 -582 0
-583 -584 0
-583 -585 0
-584 -585 0
-586 -587 0
-586 -588 0
-587 -588 0
-589 -590 0
-589 -591 0
-590 -591 0
-592 -593 0
-592 -594 0
-593 -594 0
-595 -596 0
-595 -597 0
-596 -597 0
-598 -599 0
-598 -600 0
-599 -600 0
-1 -145 0
-1 -382 0
-1 -475 0
-4 -22 0
-4 -154 0
-4 -163 0
-7 -67 0
-7 -220 0
-7 -526 0
-10 -298 0
-10 -553 0
-13 -229 0
-13 -475 0
-13 -589 0
-16 -64 0
-16 -175 0
-16 -304 0
-19 -265 0
-19 -472 0
-19 -595 0
-22 -4 0
-22 -73 0
-22 -550 0
-25 -52 0
-25 -229 0
-25 -442 0
-28 -52 0
-28 -85 0
-28 -397 0
-31 -175 0
-31 -334 0
-31 -535 0
-34 -319 0
-34 -487 0
-34 -577 0
-37 -142 0
-37 -268 0
-37 -526 0
-40 -214 0
-40 -334 0
-40 -424 0
-43 -133 0
-43 -229 0
-43 -358 0
-46 -211 0
-46 -352 0
-46 -415 0
-49 -139 0
-49 -151 0
-49 -301 0
-52 -25 0
-52 -28 0
-52 -247 0
-55 -163 0
-55 -466 0
-55 -544 0
-58 -265 0
-58 -487 0
-58 -595 0
-61 -163 0
-61 -205 0
-61 -238 0
-64 -16 0
-64 -232 0
-64 -538 0
-67 -7 0
-67 -418 0
-67 -421 0
-70 -226 0
-70 -529 0
-73 -22 0
-73 -97 0
-73 -235 0
-76 -325 0
-76 -376 0
-76 -478 0
-79 -307 0
-79 -328 0
-79 -424 0
-82 -121 0
-82 -484 0
-82 -595 0
-85 -28 0
-85 -529 0
-85 -550 0
-88 -142 0
-88 -370 0
-88 -442 0
-91 -361 0
-91 -556 0
-91 -559 0
-94 -424 0
-94 -433 0
-94 -568 0
-97 -73 0
-97 -145 0
-97 -580 0
-100 -190 0
-100 -370 0
-100 -508 0
-103 -136 0
-103 -391 0
-103 -499 0
-106 -382 0
-106 -517 0
-106 -598 0
-109 -304 0
-109 -523 0
-109 -580 0
-112 -394 0
-112 -520 0
-112 -529 0
-115 -220 0
-115 -322 0
-115 -442 0
-118 -148 0
-118 -208 0
-118 -403 0
-121 -82 0
-121 -202 0
-121 -418 0
-124 -328 0
-124 -361 0
-124 -385 0
-127 -157 0
-127 -205 0
-127 -388 0
-130 -382 0
-130 -508 0
-130 -586 0
-133 -43 0
-133 -391 0
-133 -550 0
-136 -103 0
-136 -355 0
-136 -463 0
-139 -49 0
-139 -178 0
-139 -361 0
-142 -37 0
-142 -88 0
-142 -277 0
-145 -1 0
-145 -97 0
-145 -439 0
-148 -118 0
-148 -271 0
-148 -298 0
-151 -49 0
-151 -187 0
-151 -598 0
-154 -4 0
-154 -385 0
-154 -430 0
-157 -127 0
-157 -553 0
-157 -574 0
-160 -172 0
-160 -463 0
-160 -559 0
-163 -4 0
-163 -55 0
-163 -61 0
-166 -220 0
-166 -256 0
-166 -484 0
-169 -235 0
-169 -286 0
-169 -316 0
-172 -160 0
-172 -271 0
-172 -439 0
-175 -16 0
-175 -31 0
-175 -478 0
-178 -139 0
-178 -253 0
-178 -313 0
-181 -400 0
-181 -427 0
-181 -535 0
-184 -301 0
-184 -466 0
-184 -478 0
-187 -151 0
-187 -352 0
-187 -367 0
-190 -100 0
-190 -319 0
-190 -487 0
-193 -280 0
-193 -481 0
-193 -583 0
-196 -394 0
-196 -511 0
-196 -556 0
-199 -385 0
-199 -457 0
-199 -517 0
-202 -121 0
-202 -493 0
-202 -589 0
-205 -61 0
-205 -127 0
-205 -436 0
-208 -118 0
-208 -238 0
-208 -520 0
-211 -46 0
-211 -337 0
-211 -502 0
-214 -40 0
-214 -412 0
-214 -511 0
-217 -232 0
-217 -388 0
-217 -538 0
-220 -7 0
-220 -115 0
-220 -166 0
-223 -280 0
-223 -331 0
-223 -514 0
-226 -70 0
-226 -337 0
-229 -13 0
-229 -25 0
-229 -43 0
-232 -64 0
-232 -217 0
-232 -406 0
-235 -73 0
-235 -169 0
-235 -580 0
-238 -61 0
-238 -208 0
-238 -418 0
-241 -343 0
-241 -433 0
-241 -496 0
-244 -340 0
-244 -349 0
-244 -451 0
-247 -52 0
-247 -571 0
-247 -574 0
-250 -334 0
-250 -367 0
-250 -574 0
-253 -178 0
-253 -367 0
-253 -412 0
-256 -166 0
-256 -475 0
-256 -598 0
-259 -322 0
-259 -370 0
-259 -520 0
-262 -277 0
-262 -493 0
-262 -496 0
-265 -19 0
-265 -58 0
-265 -508 0
-268 -37 0
-268 -421 0
-268 -466 0
-271 -148 0
-271 -172 0
-271 -325 0
-274 -400 0
-274 -421 0
-274 -517 0
-277 -142 0
-277 -262 0
-277 -328 0
-280 -193 0
-280 -223 0
-280 -349 0
-283 -403 0
-283 -484 0
-283 -502 0
-286 -169 0
-286 -439 0
-286 -562 0
-289 -469 0
-289 -490 0
-289 -583 0
-292 -346 0
-292 -505 0
-292 -532 0
-295 -307 0
-295 -538 0
-295 -541 0
-298 -10 0
-298 -148 0
-298 -304 0
-301 -49 0
-301 -184 0
-301 -412 0
-304 -16 0
-304 -109 0
-304 -298 0
-307 -79 0
-307 -295 0
-307 -511 0
-310 -403 0
-310 -463 0
-310 -514 0
-313 -178 0
-313 -352 0
-313 -376 0
-316 -169 0
-316 -364 0
-316 -415 0
-319 -34 0
-319 -190 0
-319 -460 0
-322 -115 0
-322 -259 0
-322 -565 0
-325 -76 0
-325 -271 0
-325 -535 0
-328 -79 0
-328 -124 0
-328 -277 0
-331 -223 0
-331 -340 0
-331 -433 0
-334 -31 0
-334 -40 0
-334 -250 0
-337 -211 0
-337 -226 0
-337 -397 0
-340 -244 0
-340 -331 0
-340 -544 0
-343 -241 0
-343 -409 0
-343 -526 0
-346 -292 0
-346 -406 0
-346 -490 0
-349 -244 0
-349 -280 0
-349 -568 0
-352 -46 0
-352 -187 0
-352 -313 0
-355 -136 0
-355 -451 0
-355 -547 0
-358 -43 0
-358 -556 0
-358 -571 0
-361 -91 0
-361 -124 0
-361 -139 0
-364 -316 0
-364 -544 0
-364 -559 0
-367 -187 0
-367 -250 0
-367 -253 0
-370 -88 0
-370 -100 0
-370 -259 0
-373 -490 0
-373 -514 0
-373 -523 0
-376 -76 0
-376 -313 0
-376 -565 0
-379 -451 0
-379 -469 0
-379 -502 0
-382 -1 0
-382 -106 0
-382 -130 0
-385 -124 0
-385 -154 0
-385 -199 0
-388 -127 0
-388 -217 0
-388 -400 0
-391 -103 0
-391 -133 0
-391 -571 0
-394 -112 0
-394 -196 0
-394 -397 0
-397 -28 0
-397 -337 0
-397 -394 0
-400 -181 0
-400 -274 0
-400 -388 0
-403 -118 0
-403 -283 0
-403 -310 0
-406 -232 0
-406 -346 0
-406 -454 0
-409 -343 0
-409 -415 0
-409 -568 0
-412 -214 0
-412 -253 0
-412 -301 0
-415 -46 0
-415 -316 0
-415 -409 0
-418 -67 0
-418 -121 0
-418 -238 0
-421 -67 0
-421 -268 0
-421 -274 0
-424 -40 0
-424 -79 0
-424 -94 0
-427 -181 0
-427 -445 0
-427 -448 0
-430 -154 0
-430 -460 0
-430 -586 0
-433 -94 0
-433 -241 0
-433 -331 0
-436 -205 0
-436 -583 0
-436 -592 0
-439 -145 0
-439 -172 0
-439 -286 0
-442 -25 0
-442 -88 0
-442 -115 0
-445 -427 0
-445 -481 0
-445 -589 0
-448 -427 0
-448 -499 0
-448 -592 0
-451 -244 0
-451 -355 0
-451 -379 0
-454 -406 0
-454 -460 0
-454 -469 0
-457 -199 0
-457 -493 0
-457 -541 0
-460 -319 0
-460 -430 0
-460 -454 0
-463 -136 0
-463 -160 0
-463 -310 0
-466 -55 0
-466 -184 0
-466 -268 0
-469 -289 0
-469 -379 0
-469 -454 0
-472 -19 0
-472 -496 0
-472 -562 0
-475 -1 0
-475 -13 0
-475 -256 0
-478 -76 0
-478 -175 0
-478 -184 0
-481 -193 0
-481 -445 0
-481 -586 0
-484 -82 0
-484 -166 0
-484 -283 0
-487 -34 0
-487 -58 0
-487 -190 0
-490 -289 0
-490 -346 0
-490 -373 0
-493 -202 0
-493 -262 0
-493 -457 0
-496 -241 0
-496 -262 0
-496 -472 0
-499 -103 0
-499 -448 0
-499 -523 0
-502 -211 0
-502 -283 0
-502 -379 0
-505 -292 0
-505 -577 0
-505 -592 0
-508 -100 0
-508 -130 0
-508 -265 0
-511 -196 0
-511 -214 0
-511 -307 0
-514 -223 0
-514 -310 0
-514 -373 0
-517 -106 0
-517 -199 0
-517 -274 0
-520 -112 0
-520 -208 0
-520 -259 0
-523 -109 0
-523 -373 0
-523 -499 0
-526 -7 0
-526 -37 0
-526 -343 0
-529 -70 0
-529 -85 0
-529 -112 0
-532 -292 0
-532 -562 0
-532 -565 0
-535 -31 0
-535 -181 0
-535 -325 0
-538 -64 0
-538 -217 0
-538 -295 0
-541 -295 0
-541 -457 0
-541 -577 0
-544 -55 0
-544 -340 0
-544 -364 0
-547 -355 0
-550 -22 0
-550 -85 0
-550 -133 0
-553 -10 0
-553 -157 0
-556 -91 0
-556 -196 0
-556 -358 0
-559 -91 0
-559 -160 0
-559 -364 0
-562 -286 0
-562 -472 0
-562 -532 0
-565 -322 0
-565 -376 0
-565 -532 0
-568 -94 0
-568 -349 0
-568 -409 0
-571 -247 0
-571 -358 0
-571 -391 0
-574 -157 0
-574 -247 0
-574 -250 0
-577 -34 0
-577 -505 0
-577 -541 0
-580 -97 0
-580 -109 0
-580 -235 0
-583 -193 0
-583 -289 0
-583 -436 0
-586 -130 0
-586 -430 0
-586 -481 0
-589 -13 0
-589 -202 0
-589 -445 0
-592 -436 0
-592 -448 0
-592 -505 0
-595 -19 0
-595 -58 0
-595 -82 0
-598 -106 0
-598 -151 0
-598 -256 0
-2 -146 0
-2 -383 0
-2 -476 0
-5 -23 0
-5 -155 0
-5 -164 0
-8 -68 0
-8 -221 0
-8 -527 0
-11 -299 0
-11 -554 0
-14 -230 0
-14 -476 0
-14 -590 0
-17 -65 0
-17 -176 0
-17 -305 0
-20 -266 0
-20 -473 0
-20 -596 0
-23 -5 0
-23 -74 0
-23 -551 0
-26 -53 0
-26 -230 0
-26 -443 0
-29 -53 0
-29 -86 0
-29 -398 0
-32 -176 0
-32 -335 0
-32 -536 0
-35 -320 0
-35 -488 0
-35 -578 0
-38 -143 0
-38 -269 0
-38 -527 0
-41 -215 0
-41 -335 0
-41 -425 0
-44 -134 0
-44 -230 0
-44 -359 0
-47 -212 0
-47 -353 0
-47 -416 0
-50 -140 0
-50 -152 0
-50 -302 0
-53 -26 0
-53 -29 0
-53 -248 0
-56 -164 0
-56 -467 0
-56 -545 0
-59 -266 0
-59 -488 0
-59 -596 0
-62 -164 0
-62 -206 0
-62 -239 0
-65 -17 0
-65 -233 0
-65 -539 0
-68 -8 0
-68 -419 0
-68 -422 0
-71 -227 0
-71 -530 0
-74 -23 0
-74 -98 0
-74 -236 0
-77 -326 0
-77 -377 0
-77 -479 0
-80 -308 0
-80 -329 0
-80 -425 0
-83 -122 0
-83 -485 0
-83 -596 0
-86 -29 0
-86 -530 0
-86 -551 0
-89 -143 0
-89 -371 0
-89 -443 0
-92 -362 0
-92 -557 0
-92 -560 0
-95 -425 0
-95 -434 0
-95 -569 0
-98 -74 0
-98 -146 0
-98 -581 0
-101 -191 0
-101 -371 0
-101 -509 0
-104 -137 0
-104 -392 0
-104 -500 0
-107 -383 0
-107 -518 0
-107 -599 0
-110 -305 0
-110 -524 0
-110 -581 0
-113 -395 0
-113 -521 0
-113 -530 0
-116 -221 0
-116 -323 0
-116 -443 0
-119 -149 0
-119 -209 0
-119 -404 0
-122 -83 0
-122 -203 0
-122 -419 0
-125 -329 0
-125 -362 0
-125 -386 0
-128 -158 0
-128 -206 0
-128 -389 0
-131 -383 0
-131 -509 0
-131 -587 0
-134 -44 0
-134 -392 0
-134 -551 0
-137 -104 0
-137 -356 0
-137 -464 0
-140 -50 0
-140 -179 0
-140 -362 0
-143 -38 0
-143 -89 0
-143 -278 0
-146 -2 0
-146 -98 0
-146 -440 0
-149 -119 0
-149 -272 0
-149 -299 0
-152 -50 0
-152 -188 0
-152 -599 0
-155 -5 0
-155 -386 0
-155 -431 0
-158 -128 0
-158 -554 0
-158 -575 0
-161 -173 0
-161 -464 0
-161 -560 0
-164 -5 0
-164 -56 0
-164 -62 0
-167 -221 0
-167 -257 0
-167 -485 0
-170 -236 0
-170 -287 0
-170 -317 0
-173 -161 0
-173 -272 0
-173 -440 0
-176 -17 0
-176 -32 0
-176 -479 0
-179 -140 0
-179 -254 0
-179 -314 0
-182 -401 0
-182 -428 0
-182 -536 0
-185 -302 0
-185 -467 0
-185 -479 0
-188 -152 0
-188 -353 0
-188 -368 0
-191 -101 0
-191 -320 0
-191 -488 0
-194 -281 0
-194 -482 0
-194 -584 0
-197 -395 0
-197 -512 0
-197 -557 0
-200 -386 0
-200 -458 0
-200 -518 0
-203 -122 0
-203 -494 0
-203 -590 0
-206 -62 0
-206 -128 0
-206 -437 0
-209 -119 0
-209 -239 0
-209 -521 0
-212 -47 0
-212 -338 0
-212 -503 0
-215 -41 0
-215 -413 0
-215 -512 0
-218 -233 0
-218 -389 0
-218 -539 0
-221 -8 0
-221 -116 0
-221 -167 0
-224 -281 0
-224 -332 0
-224 -515 0
-227 -71 0
-227 -338 0
-230 -14 0
-230 -26 0
-230 -44 0
-233 -65 0
-233 -218 0
-233 -407 0
-236 -74 0
-236 -170 0
-236 -581 0
-239 -62 0
-239 -209 0
-239 -419 0
-242 -344 0
-242 -434 0
-242 -497 0
-245 -341 0
-245 -350 0
-245 -452 0
-248 -53 0
-248 -572 0
-248 -575 0
-251 -335 0
-251 -368 0
-251 -575 0
-254 -179 0
-254 -368 0
-254 -413 0
-257 -167 0
-257 -476 0
-257 -599 0
-260 -323 0
-260 -371 0
-260 -521 0
-263 -278 0
-263 -494 0
-263 -497 0
-266 -20 0
-266 -59 0
-266 -509 0
-269 -38 0
-269 -422 0
-269 -467 0
-272 -149 0
-272 -173 0
-272 -326 0
-275 -401 0
-275 -422 0
-275 -518 0
-278 -143 0
-278 -263 0
-278 -329 0
-281 -194 0
-281 -224 0
-281 -350 0
-284 -404 0
-284 -485 0
-284 -503 0
-287 -170 0
-287 -440 0
-287 -563 0
-290 -470 0
-290 -491 0
-290 -584 0
-293 -347 0
-293 -506 0
-293 -533 0
-296 -308 0
-296 -539 0
-296 -542 0
-299 -11 0
-299 -149 0
-299 -305 0
-302 -50 0
-302 -185 0
-302 -413 0
-305 -17 0
-305 -110 0
-305 -299 0
-308 -80 0
-308 -296 0
-308 -512 0
-311 -404 0
-311 -464 0
-311 -515 0
-314 -179 0
-314 -353 0
-314 -377 0
-317 -170 0
-317 -365 0
-317 -416 0
-320 -35 0
-320 -191 0
-320 -461 0
-323 -116 0
-323 -260 0
-323 -566 0
-326 -77 0
-326 -272 0
-326 -536 0
-329 -80 0
-329 -125 0
-329 -278 0
-332 -224 0
-332 -341 0
-332 -434 0
-335 -32 0
-335 -41 0
-335 -251 0
-338 -212 0
-338 -227 0
-338 -398 0
-341 -245 0
-341 -332 0
-341 -545 0
-344 -242 0
-344 -410 0
-344 -527 0
-347 -293 0
-347 -407 0
-347 -491 0
-350 -245 0
-350 -281 0
-350 -569 0
-353 -47 0
-353 -188 0
-353 -314 0
-356 -137 0
-356 -452 0
-356 -548 0
-359 -44 0
-359 -557 0
-359 -572 0
-362 -92 0
-362 -125 0
-362 -140 0
-365 -317 0
-365 -545 0
-365 -560 0
-368 -188 0
-368 -251 0
-368 -254 0
-371 -89 0
-371 -101 0
-371 -260 0
-374 -491 0
-374 -515 0
-374 -524 0
-377 -77 0
-377 -314 0
-377 -566 0
-380 -452 0
-380 -470 0
-380 -503 0
-383 -2 0
-383 -107 0
-383 -131 0
-386 -125 0
-386 -155 0
-386 -200 0
-389 -128 0
-389 -218 0
-389 -401 0
-392 -104 0
-392 -134 0
-392 -572 0
-395 -113 0
-395 -197 0
-395 -398 0
-398 -29 0
-398 -338 0
-398 -395 0
-401 -182 0
-401 -275 0
-401 -389 0
-404 -119 0
-404 -284 0
-404 -311 0
-407 -233 0
-407 -347 0
-407 -455 0
-410 -344 0
-410 -416 0
-410 -569 0
-413 -215 0
-413 -254 0
-413 -302 0
-416 -47 0
-416 -317 0
-416 -410 0
-419 -68 0
-419 -122 0
-419 -239 0
-422 -68 0
-422 -269 0
-422 -275 0
-425 -41 0
-425 -80 0
-425 -95 0
-428 -182 0
-428 -446 0
-428 -449 0
-431 -155 0
-431 -461 0
-431 -587 0
-434 -95 0
-434 -242 0
-434 -332 0
-437 -206 0
-437 -584 0
-437 -593 0
-440 -146 0
-440 -173 0
-440 -287 0
-443 -26 0
-443 -89 0
-443 -116 0
-446 -428 0
-446 -482 0
-446 -590 0
-449 -428 0
-449 -500 0
-449 -593 0
-452 -245 0
-452 -356 0
-452 -380 0
-455 -407 0
-455 -461 0
-455 -470 0
-458 -200 0
-458 -494 0
-458 -542 0
-461 -320 0
-461 -431 0
-461 -455 0
-464 -137 0
-464 -161 0
-464 -311 0
-467 -56 0
-467 -185 0
-467 -269 0
-470 -290 0
-470 -380 0
-470 -455 0
-473 -20 0
-473 -497 0
-473 -563 0
-476 -2 0
-476 -14 0
-476 -257 0
-479 -77 0
-479 -176 0
-479 -185 0
-482 -194 0
-482 -446 0
-482 -587 0
-485 -83 0
-485 -167 0
-485 -284 0
-488 -35 0
-488 -59 0
-488 -191 0
-491 -290 0
-491 -347 0
-491 -374 0
-494 -203 0
-494 -263 0
-494 -458 0
-497 -242 0
-497 -263 0
-497 -473 0
-500 -104 0
-500 -449 0
-500 -524 0
-503 -212 0
-503 -284 0
-503 -380 0
-506 -293 0
-506 -578 0
-506 -593 0
-509 -101 0
-509 -131 0
-509 -266 0
-512 -197 0
-512 -215 0
-512 -308 0
-515 -224 0
-515 -311 0
-515 -374 0
-518 -107 0
-518 -200 0
-518 -275 0
-521 -113 0
-521 -209 0
-521 -260 0
-524 -110 0
-524 -374 0
-524 -500 0
-527 -8 0
-527 -38 0
-527 -344 0
-530 -71 0
-530 -86 0
-530 -113 0
-533 -293 0
-533 -563 0
-533 -566 0
-536 -32 0
-536 -182 0
-536 -326 0
-539 -65 0
-539 -218 0
-539 -296 0
-542 -296 0
-542 -458 0
-542 -578 0
-545 -56 0
-545 -341 0
-545 -365 0
-548 -356 0
-551 -23 0
-551 -86 0
-551 -134 0
-554 -11 0
-554 -158 0
-557 -92 0
-557 -197 0
-557 -359 0
-560 -92 0
-560 -161 0
-560 -365 0
-563 -287 0
-563 -473 0
-563 -533 0
-566 -323 0
-566 -377 0
-566 -533 0
-569 -95 0
-569 -350 0
-569 -410 0
-572 -248 0
-572 -359 0
-572 -392 0
-575 -158 0
-575 -248 0
-575 -251 0
-578 -35 0
-578 -506 0
-578 -542 0
-581 -98 0
-581 -110 0
-581 -236 0
-584 -194 0
-584 -290 0
-584 -437 0
-587 -131 0
-587 -431 0
-587 -482 0
-590 -14 0
-590 -203 0
-590 -446 0
-593 -437 0
-593 -449 0
-593 -506 0
-596 -20 0
-596 -59 0
-596 -83 0
-599 -107 0
-599 -152 0
-599 -257 0
-3 -147 0
-3 -384 0
-3 -477 0
-6 -24 0
-6 -156 0
-6 -165 0
-9 -69 0
-9 -222 0
-9 -528 0
-12 -300 0
-12 -555 0
-15 -231 0
-15 -477 0
-15 -591 0
-18 -66 0
-18 -177 0
-18 -306 0
-21 -267 0
-21 -474 0
-21 -597 0
-24 -6 0
-24 -75 0
-24 -552 0
-27 -54 0
-27 -231 0
-27 -444 0
-30 -54 0
-30 -87 0
-30 -399 0
-33 -177 0
-33 -336 0
-33 -537 0
-36 -321 0
-36 -489 0
-36 -579 0
-39 -144 0
-39 -270 0
-39 -528 0
-42 -216 0
-42 -336 0
-42 -426 0
-45 -135 0
-45 -231 0
-45 -360 0
-48 -213 0
-48 -354 0
-48 -417 0
-51 -141 0
-51 -153 0
-51 -303 0
-54 -27 0
-54 -30 0
-54 -249 0
-57 -165 0
-57 -468 0
-57 -546 0
-60 -267 0
-60 -489 0
-60 -597 0
-63 -165 0
-63 -207 0
-63 -240 0
-66 -18 0
-66 -234 0
-66 -540 0
-69 -9 0
-69 -420 0
-69 -423 0
-72 -228 0
-72 -531 0
-75 -24 0
-75 -99 0
-75 -237 0
-78 -327 0
-78 -378 0
-78 -480 0
-81 -309 0
-81 -330 0
-81 -426 0
-84 -123 0
-84 -486 0
-84 -597 0
-87 -30 0
-87 -531 0
-87 -552 0
-90 -144 0
-90 -372 0
-90 -444 0
-93 -363 0
-93 -558 0
-93 -561 0
-96 -426 0
-96 -435 0
-96 -570 0
-99 -75 0
-99 -147 0
-99 -582 0
-102 -192 0
-102 -372 0
-102 -510 0
-105 -138 0
-105 -393 0
-105 -501 0
-108 -384 0
-108 -519 0
-108 -600 0
-111 -306 0
-111 -525 0
-111 -582 0
-114 -396 0
-114 -522 0
-114 -531 0
-117 -222 0
-117 -324 0
-117 -444 0
-120 -150 0
-120 -210 0
-120 -405 0
-123 -84 0
-123 -204 0
-123 -420 0
-126 -330 0
-126 -363 0
-126 -387 0
-129 -159 0
-129 -207 0
-129 -390 0
-132 -384 0
-132 -510 0
-132 -588 0
-135 -45 0
-135 -393 0
-135 -552 0
-138 -105 0
-138 -357 0
-138 -465 0
-141 -51 0
-141 -180 0
-141 -363 0
-144 -39 0
-144 -90 0
-144 -279 0
-147 -3 0
-147 -99 0
-147 -441 0
-150 -120 0
-150 -273 0
-150 -300 0
-153 -51 0
-153 -189 0
-153 -600 0
-156 -6 0
-156 -387 0
-156 -432 0
-159 -129 0
-159 -555 0
-159 -576 0
-162 -174 0
-162 -465 0
-162 -561 0
-165 -6 0
-165 -57 0
-165 -63 0
-168 -222 0
-168 -258 0
-168 -486 0
-171 -237 0
-171 -288 0
-171 -318 0
-174 -162 0
-174 -273 0
-174 -441 0
-177 -18 0
-177 -33 0
-177 -480 0
-180 -141 0
-180 -255 0
-180 -315 0
-183 -402 0
-183 -429 0
-183 -537 0
-186 -303 0
-186 -468 0
-186 -480 0
-189 -153 0
-189 -354 0
-189 -369 0
-192 -102 0
-192 -321 0
-192 -489 0
-195 -282 0
-195 -483 0
-195 -585 0
-198 -396 0
-198 -513 0
-198 -558 0
-201 -387 0
-201 -459 0
-201 -519 0
-204 -123 0
-204 -495 0
-204 -591 0
-207 -63 0
-207 -129 0
-207 -438 0
-210 -120 0
-210 -240 0
-210 -522 0
-213 -48 0
-213 -339 0
-213 -504 0
-216 -42 0
-216 -414 0
-216 -513 0
-219 -234 0
-219 -390 0
-219 -540 0
-222 -9 0
-222 -117 0
-222 -168 0
-225 -282 0
-225 -333 0
-225 -516 0
-228 -72 0
-228 -339 0
-231 -15 0
-231 -27 0
-231 -45 0
-234 -66 0
-234 -219 0
-234 -408 0
-237 -75 0
-237 -171 0
-237 -582 0
-240 -63 0
-240 -210 0
-240 -420 0
-243 -345 0
-243 -435 0
-243 -498 0
-246 -342 0
-246 -351 0
-246 -453 0
-249 -54 0
-249 -573 0
-249 -576 0
-252 -336 0
-252 -369 0
-252 -576 0
-255 -180 0
-255 -369 0
-255 -414 0
-258 -168 0
-258 -477 0
-258 -600 0
-261 -324 0
-261 -372 0
-261 -522 0
-264 -279 0
-264 -495 0
-264 -498 0
-267 -21 0
-267 -60 0
-267 -510 0
-270 -39 0
-270 -423 0
-270 -468 0
-273 -150 0
-273 -174 0
-273 -327 0
-276 -402 0
-276 -423 0
-276 -519 0
-279 -144 0
-279 -264 0
-279 -330 0
-282 -195 0
-282 -225 0
-282 -351 0
-285 -405 0
-285 -486 0
-285 -504 0
-288 -171 0
-288 -441 0
-288 -564 0
-291 -471 0
-291 -492 0
-291 -585 0
-294 -348 0
-294 -507 0
-294 -534 0
-297 -309 0
-297 -540 0
-297 -543 0
-300 -12 0
-300 -150 0
-300 -306 0
-303 -51 0
-303 -186 0
-303 -414 0
-306 -18 0
-306 -111 0
-306 -300 0
-309 -81 0
-309 -297 0
-309 -513 0
-312 -405 0
-312 -465 0
-312 -516 0
-315 -180 0
-315 -354 0
-315 -378 0
-318 -171 0
-318 -366 0
-318 -417 0
-321 -36 0
-321 -192 0
-321 -462 0
-324 -117 0
-324 -261 0
-324 -567 0
-327 -78 0
-327 -273 0
-327 -537 0
-330 -81 0
-330 -126 0
-330 -279 0
-333 -225 0
-333 -342 0
-333 -435 0
-336 -33 0
-336 -42 0
-336 -252 0
-339 -213 0
-339 -228 0
-339 -399 0
-342 -246 0
-342 -333 0
-342 -546 0
-345 -243 0
-345 -411 0
-345 -528 0
-348 -294 0
-348 -408 0
-348 -492 0
-351 -246 0
-351 -282 0
-351 -570 0
-354 -48 0
-354 -189 0
-354 -315 0
-357 -138 0
-357 -453 0
-357 -549 0
-360 -45 0
-360 -558 0
-360 -573 0
-363 -93 0
-363 -126 0
-363 -141 0
-366 -318 0
-366 -546 0
-366 -561 0
-369 -189 0
-369 -252 0
-369 -255 0
-372 -90 0
-372 -102 0
-372 -261 0
-375 -492 0
-375 -516 0
-375 -525 0
-378 -78 0
-378 -315 0
-378 -567 0
-381 -453 0
-381 -471 0
-381 -504 0
-384 -3 0
-384 -108 0
-384 -132 0
-387 -126 0
-387 -156 0
-387 -201 0
-390 -129 0
-390 -219 0
-390 -402 0
-393 -105 0
-393 -135 0
-393 -573 0
-396 -114 0
-396 -198 0
-396 -399 0
-399 -30 0
-399 -339 0
-399 -396 0
-402 -183 0
-402 -276 0
-402 -390 0
-405 -120 0
-405 -285 0
-405 -312 0
-408 -234 0
-408 -348 0
-408 -456 0
-411 -345 0
-411 -417 0
-411 -570 0
-414 -216 0
-414 -255 0
-414 -303 0
-417 -48 0
-417 -318 0
-417 -411 0
-420 -69 0
-420 -123 0
-420 -240 0
-423 -69 0
-423 -270 0
-423 -276 0
-426 -42 0
-426 -81 0
-426 -96 0
-429 -183 0
-429 -447 0
-429 -450 0
-432 -156 0
-432 -462 0
-432 -588 0
-435 -96 0
-435 -243 0
-435 -333 0
-438 -207 0
-438 -585 0
-438 -594 0
-441 -147 0
-441 -174 0
-441 -288 0
-444 -27 0
-444 -90 0
-444 -117 0
-447 -429 0
-447 -483 0
-447 -591 0
-450 -429 0
-450 -501 0
-450 -594 0
-453 -246 0
-453 -357 0
-453 -381 0
-456 -408 0
-456 -462 0
-456 -471 0
-459 -201 0
-459 -495 0
-459 -543 0
-462 -321 0
-462 -432 0
-462 -456 0
-465 -138 0
-465 -162 0
-465 -312 0
-468 -57 0
-468 -186 0
-468 -270 0
-471 -291 0
-471 -381 0
-471 -456 0
-474 -21 0
-474 -498 0
-474 -564 0
-477 -3 0
-477 -15 0
-477 -258 0
-480 -78 0
-480 -177 0
-480 -186 0
-483 -195 0
-483 -447 0
-483 -588 0
-486 -84 0
-486 -168 0
-486 -285 0
-489 -36 0
-489 -60 0
-489 -192 0
-492 -291 0
-492 -348 0
-492 -375 0
-495 -204 0
-495 -264 0
-495 -459 0
-498 -243 0
-498 -264 0
-498 -474 0
-501 -105 0
-501 -450 0
-501 -525 0
-504 -213 0
-504 -285 0
-504 -381 0
-507 -294 0
-507 -579 0
-507 -594 0
-510 -102 0
-510 -132 0
-510 -267 0
-513 -198 0
-513 -216 0
-513 -309 0
-516 -225 0
-516 -312 0
-516 -375 0
-519 -108 0
-519 -201 0
-519 -276 0
-522 -114 0
-522 -210 0
-522 -261 0
-525 -111 0
-525 -375 0
-525 -501 0
-528 -9 0
-528 -39 0
-528 -345 0
-531 -72 0
-531 -87 0
-531 -114 0
-534 -294 0
-534 -564 0
-534 -567 0
-537 -33 0
-537 -183 0
-537 -327 0
-540 -66 0
-540 -219 0
-540 -297 0
-543 -297 0
-543 -459 0
-543 -579 0
-546 -57 0
-546 -342 0
-546 -366 0
-549 -357 0
-552 -24 0
-552 -87 0
-552 -135 0
-555 -12 0
-555 -159 0
-558 -93 0
-558 -198 0
-558 -360 0
-561 -93 0
-561 -162 0
-561 -366 0
-564 -288 0
-564 -474 0
-564 -534 0
-567 -324 0
-567 -378 0
-567 -534 0
-570 -96 0
-570 -351 0
-570 -411 0
-573 -249 0
-573 -360 0
-573 -393 0
-576 -159 0
-576 -249 0
-576 -252 0
-579 -36 0
-579 -507 0
-579 -543 0
-582 -99 0
-582 -111 0
-582 -237 0
-585 -195 0
-585 -291 0
-585 -438 0
-588 -132 0
-588 -432 0
-588 -483 0
-591 -15 0
-591 -204 0
-591 -447 0
-594 -438 0
-594 -450 0
-594 -507 0
-597 -21 0
-597 -60 0
-597 -84 0
-600 -108 0
-600 -153 0
-600 -258 0
